capacidades = [1000, 500, 300];
costos = [30, 15, 22];

n_clientes = 3;
n_dias = 5;

d = [|800, 300, 100, 230, 500|
      200, 700, 350, 420, 0|
      400, 100, 600, 250, 800|];
      
limit_dias = 2;
porcentaje = 0.8;